p wcnf 124 248 249 
1 -119 13 0 
1 38 -49 0 
1 -77 26 0 
1 46 -84 0 
1 -70 -53 0 
1 -82 73 0 
1 33 57 0 
1 -48 -54 0 
1 -85 24 0 
1 75 -121 0 
1 7 -71 0 
1 48 -115 0 
1 52 113 0 
1 -31 -69 0 
1 51 -106 0 
1 -114 78 0 
1 -74 -55 0 
1 -104 -85 0 
1 -6 22 0 
1 35 -67 0 
1 71 6 0 
1 100 17 0 
1 52 -6 0 
1 25 42 0 
1 -25 16 0 
1 32 -117 0 
1 -33 -61 0 
1 -32 -26 0 
1 100 23 0 
1 -117 -94 0 
1 -98 -106 0 
1 11 -45 0 
1 99 114 0 
1 46 -104 0 
1 -79 -123 0 
1 -5 63 0 
1 90 -68 0 
1 26 17 0 
1 98 -7 0 
1 -42 -8 0 
1 -96 121 0 
1 117 30 0 
1 -63 -27 0 
1 -72 30 0 
1 37 -45 0 
1 -99 -38 0 
1 57 115 0 
1 -69 -14 0 
1 -96 -81 0 
1 -7 -75 0 
1 71 -94 0 
1 41 35 0 
1 9 44 0 
1 80 39 0 
1 -90 -35 0 
1 115 29 0 
1 82 99 0 
1 115 27 0 
1 -106 82 0 
1 108 -94 0 
1 121 43 0 
1 -2 -120 0 
1 -49 -93 0 
1 105 -36 0 
1 -35 -68 0 
1 -90 -6 0 
1 41 85 0 
1 90 -57 0 
1 -5 -38 0 
1 4 54 0 
1 29 -64 0 
1 3 19 0 
1 -50 111 0 
1 -112 -116 0 
1 -12 -114 0 
1 -83 -29 0 
1 95 94 0 
1 45 -62 0 
1 -65 109 0 
1 -48 1 0 
1 -105 79 0 
1 72 109 0 
1 100 -29 0 
1 -27 -83 0 
1 -81 56 0 
1 75 104 0 
1 19 66 0 
1 -30 -50 0 
1 56 -1 0 
1 68 -1 0 
1 -102 -90 0 
1 -59 1 0 
1 -61 59 0 
1 -92 -85 0 
1 -46 -36 0 
1 -43 102 0 
1 -28 -55 0 
1 -22 77 0 
1 77 -35 0 
1 45 5 0 
1 117 -18 0 
1 14 -25 0 
1 -76 -13 0 
1 114 -10 0 
1 -106 4 0 
1 -121 34 0 
1 70 -39 0 
1 -69 -100 0 
1 -84 124 0 
1 -6 52 0 
1 -40 -122 0 
1 -116 99 0 
1 -63 104 0 
1 -104 -39 0 
1 -107 -61 0 
1 -116 -60 0 
1 -41 -104 0 
1 77 65 0 
1 24 -21 0 
1 -102 -65 0 
1 -104 91 0 
1 -114 -77 0 
1 -58 123 0 
1 81 31 0 
1 -48 61 0 
1 85 81 0 
1 -33 -104 0 
1 -47 -109 0 
1 27 -108 0 
1 48 95 0 
1 -96 -19 0 
1 -5 -13 0 
1 8 34 0 
1 -58 23 0 
1 121 -35 0 
1 -109 74 0 
1 -41 -120 0 
1 -118 -94 0 
1 -52 -21 0 
1 -88 111 0 
1 -124 -104 0 
1 -4 -6 0 
1 -55 81 0 
1 24 -22 0 
1 -16 -55 0 
1 92 14 0 
1 27 -91 0 
1 -49 -90 0 
1 6 83 0 
1 96 -33 0 
1 -93 62 0 
1 13 91 0 
1 -75 -107 0 
1 -117 38 0 
1 -24 -35 0 
1 -78 -107 0 
1 11 94 0 
1 101 -73 0 
1 -101 86 0 
1 -124 -51 0 
1 33 112 0 
1 104 -2 0 
1 -111 83 0 
1 38 6 0 
1 52 -74 0 
1 -52 80 0 
1 -16 29 0 
1 -3 27 0 
1 -104 78 0 
1 110 -70 0 
1 23 104 0 
1 -32 -75 0 
1 41 48 0 
1 4 110 0 
1 59 63 0 
1 -88 -59 0 
1 43 -101 0 
1 9 94 0 
1 -51 -94 0 
1 51 54 0 
1 -46 -19 0 
1 57 98 0 
1 55 57 0 
1 -63 -65 0 
1 114 78 0 
1 -54 38 0 
1 63 82 0 
1 -70 -55 0 
1 -100 18 0 
1 8 -9 0 
1 -118 114 0 
1 66 -41 0 
1 119 94 0 
1 -100 108 0 
1 122 -105 0 
1 -123 62 0 
1 42 -79 0 
1 -102 23 0 
1 93 56 0 
1 15 61 0 
1 -37 -27 0 
1 -116 -14 0 
1 64 -52 0 
1 116 56 0 
1 111 -37 0 
1 18 -42 0 
1 -121 -48 0 
1 9 107 0 
1 -83 37 0 
1 -25 120 0 
1 -89 -58 0 
1 116 -118 0 
1 26 110 0 
1 -41 -95 0 
1 30 57 0 
1 49 114 0 
1 -68 101 0 
1 -124 -71 0 
1 -69 47 0 
1 -40 89 0 
1 11 104 0 
1 30 84 0 
1 71 -55 0 
1 121 58 0 
1 -89 81 0 
1 93 104 0 
1 -99 -116 0 
1 6 -57 0 
1 -31 -8 0 
1 -24 67 0 
1 107 73 0 
1 -40 37 0 
1 82 -42 0 
1 -119 -114 0 
1 103 -38 0 
1 -91 94 0 
1 65 -100 0 
1 21 82 0 
1 13 3 0 
1 -122 105 0 
1 116 55 0 
1 -113 56 0 
1 109 -17 0 
1 88 -107 0 
1 -90 105 0 
1 -6 -47 0 
1 -47 -100 0 
1 33 16 0 
